p cnf 7230 17
-6757 -6758 0
-6671 -6725 -6755 0
-6669 -6723 -6753 0
-4450 -6717 -6751 0
6671 -6756 0
6669 -6754 0
4450 -6752 0
6755 6756 0
6753 6754 0
6751 6752 0
6725 -6756 0
6723 -6754 0
6717 -6752 0
-4644 -6729 6758 0
6749 6750 0
6729 -6758 0
4644 -6758 0
